InboundTrucks  = 30;
OutboundTrucks = 30;
InboundDoors   = 15;
OutboundDoors  = 15;
ReleaseTime    = [17,72,108,102,97,8,32,15,63,97,57,60,83,48,100,26,12,62,3,114,106,49,55,77,97,98,0,89,57,34];
UnloadTime     = [35,11,34,34,16,12,27,22,35,15,23,33,21,28,30,34,22,34,28,16,29,11,10,33,32,33,25,32,32,30];
LoadTime       = [11,9,5,8,18,9,8,13,18,7,17,7,14,16,10,17,6,9,8,11,5,18,15,11,9,19,11,6,6,16];
TransferTime   = [| 0,0,0,0,0,0,5,7,0,0,0,0,0,0,0,0,0,8,6,3,6,0,0,0,4,8,0,0,0,0 | 0,0,2,0,0,0,0,0,7,0,3,3,0,7,0,0,0,0,0,0,0,0,8,0,8,0,0,0,3,0 | 0,0,3,0,5,2,0,0,0,0,0,0,2,7,0,0,0,0,0,0,0,4,0,2,0,0,0,3,0,0 | 0,0,4,0,0,0,0,0,2,0,0,0,0,0,0,5,0,0,0,0,0,0,0,7,0,0,0,0,0,0 | 0,0,0,0,0,0,0,0,0,0,0,5,0,0,0,0,0,0,0,0,2,0,8,0,0,0,8,0,2,3 | 0,0,0,4,0,0,8,0,4,7,0,4,0,5,0,0,0,0,3,0,0,0,0,0,0,4,0,0,0,8 | 5,0,7,0,0,0,0,5,0,0,0,4,0,0,0,0,7,0,0,5,0,0,0,0,0,7,0,0,0,0 | 0,0,0,0,0,6,7,0,0,3,0,2,0,0,0,0,0,0,0,0,0,0,0,0,0,0,0,0,3,0 | 6,0,0,0,7,0,4,0,0,0,7,7,0,0,4,0,3,8,0,0,8,0,0,0,0,0,8,0,0,0 | 0,0,7,0,3,0,0,8,0,0,0,0,0,0,0,0,0,4,2,0,0,0,3,5,0,0,0,8,0,0 | 0,0,0,0,0,0,0,3,0,0,0,0,0,0,0,0,0,0,0,0,0,6,0,7,0,0,2,3,0,0 | 0,2,0,3,6,0,0,0,0,8,4,0,3,8,0,7,2,3,0,6,0,0,2,0,0,0,0,0,0,0 | 0,0,0,0,0,5,8,0,7,0,0,0,0,6,0,8,0,0,0,0,0,6,0,0,8,0,0,0,2,7 | 0,0,7,0,0,7,0,0,0,0,0,0,0,0,0,0,0,4,0,0,0,0,0,2,8,0,0,6,0,0 | 0,0,0,0,0,0,7,0,0,0,0,0,0,2,0,4,0,0,0,0,2,7,0,0,0,0,0,0,2,3 | 2,0,8,0,0,0,0,6,0,0,0,0,0,0,0,0,0,0,0,0,3,0,0,0,0,0,2,4,4,8 | 0,0,0,0,0,0,3,0,0,0,0,3,3,0,0,5,0,0,0,5,0,0,3,0,6,0,0,0,0,0 | 3,0,0,0,3,0,7,0,0,0,2,0,0,0,0,0,6,0,5,0,0,0,0,8,3,7,8,0,0,4 | 0,0,0,0,0,0,0,0,0,0,5,0,0,0,0,0,3,0,0,0,0,0,0,5,5,0,0,5,0,0 | 0,0,0,2,0,6,5,4,0,0,5,0,0,0,0,8,0,8,0,0,0,0,4,0,0,0,0,0,0,7 | 3,7,0,0,0,7,0,0,0,0,0,0,7,0,0,0,2,0,0,0,0,0,0,4,0,7,5,0,0,0 | 0,0,3,3,0,0,3,0,0,4,0,8,0,0,8,3,0,0,0,0,0,8,3,0,0,0,8,7,0,6 | 5,0,0,0,0,3,0,4,0,0,0,0,0,4,0,0,8,8,3,0,0,0,0,0,0,0,0,0,0,0 | 3,7,5,0,0,0,0,3,6,0,0,3,0,0,4,0,0,0,0,0,0,0,0,0,0,0,0,7,0,0 | 3,0,0,0,0,0,5,6,0,0,0,0,0,0,0,0,3,0,0,7,3,0,0,0,0,0,0,0,7,0 | 6,0,0,3,7,0,4,4,5,0,2,0,0,0,0,5,0,0,0,0,0,0,2,0,0,0,0,0,5,0 | 4,0,4,0,0,0,0,0,0,0,0,0,0,3,0,0,0,5,0,0,0,4,7,0,0,6,0,0,0,5 | 0,0,0,0,0,0,7,8,0,0,0,0,0,3,0,6,0,0,0,8,0,0,0,6,0,2,0,0,0,0 | 0,0,0,4,6,0,3,0,7,8,0,0,0,0,0,0,5,0,3,6,4,0,0,0,0,0,0,7,7,5 | 0,5,0,0,4,4,0,0,0,0,0,4,0,0,0,5,4,7,0,0,0,0,8,0,0,0,0,3,0,0 |];
